43
1000
200	2
199	3
198	1
197	3
196	2
194	1
192	3
191	3
190	3
189	2
188	3
186	2
185	2
184	2
183	2
182	4
181	3
179	4
178	1
177	2
173	3
171	4
170	1
169	2
168	4
167	2
166	1
165	2
164	3
163	3
162	3
161	6
160	1
159	1
158	2
157	2
156	1
155	3
154	1
153	2
152	2
151	1
150	2
